c 3 - XORSAT
p cnf 40 160
15 26 32 0
-15 -26 32 0
-15 26 -32 0
15 -26 -32 0
-4 -6 -28 0
-4 6 28 0
4 -6 28 0
4 6 -28 0
-30 -32 -36 0
-30 32 36 0
30 -32 36 0
30 32 -36 0
18 34 36 0
-18 -34 36 0
-18 34 -36 0
18 -34 -36 0
29 40 14 0
-29 -40 14 0
-29 40 -14 0
29 -40 -14 0
-21 -29 -35 0
-21 29 35 0
21 -29 35 0
21 29 -35 0
2 8 19 0
-2 -8 19 0
-2 8 -19 0
2 -8 -19 0
33 35 37 0
-33 -35 37 0
-33 35 -37 0
33 -35 -37 0
-13 -27 -29 0
-13 27 29 0
13 -27 29 0
13 27 -29 0
5 8 24 0
-5 -8 24 0
-5 8 -24 0
5 -8 -24 0
-7 -14 -19 0
-7 14 19 0
7 -14 19 0
7 14 -19 0
-1 -18 -22 0
-1 18 22 0
1 -18 22 0
1 18 -22 0
-2 -6 -16 0
-2 6 16 0
2 -6 16 0
2 6 -16 0
-14 -16 -26 0
-14 16 26 0
14 -16 26 0
14 16 -26 0
17 39 40 0
-17 -39 40 0
-17 39 -40 0
17 -39 -40 0
-1 -21 -22 0
-1 21 22 0
1 -21 22 0
1 21 -22 0
12 26 20 0
-12 -26 20 0
-12 26 -20 0
12 -26 -20 0
13 17 25 0
-13 -17 25 0
-13 17 -25 0
13 -17 -25 0
-3 -9 -34 0
-3 9 34 0
3 -9 34 0
3 9 -34 0
23 35 38 0
-23 -35 38 0
-23 35 -38 0
23 -35 -38 0
18 21 34 0
-18 -21 34 0
-18 21 -34 0
18 -21 -34 0
-5 -7 -10 0
-5 7 10 0
5 -7 10 0
5 7 -10 0
2 23 28 0
-2 -23 28 0
-2 23 -28 0
2 -23 -28 0
10 15 28 0
-10 -15 28 0
-10 15 -28 0
10 -15 -28 0
4 11 24 0
-4 -11 24 0
-4 11 -24 0
4 -11 -24 0
-1 -15 -23 0
-1 15 23 0
1 -15 23 0
1 15 -23 0
-22 -30 -31 0
-22 30 31 0
22 -30 31 0
22 30 -31 0
8 11 12 0
-8 -11 12 0
-8 11 -12 0
8 -11 -12 0
-9 -10 -16 0
-9 10 16 0
9 -10 16 0
9 10 -16 0
20 25 30 0
-20 -25 30 0
-20 25 -30 0
20 -25 -30 0
-17 -27 -32 0
-17 27 32 0
17 -27 32 0
17 27 -32 0
-36 -37 -39 0
-36 37 39 0
36 -37 39 0
36 37 -39 0
-25 -31 -33 0
-25 31 33 0
25 -31 33 0
25 31 -33 0
-3 -5 -7 0
-3 5 7 0
3 -5 7 0
3 5 -7 0
-19 -37 -38 0
-19 37 38 0
19 -37 38 0
19 37 -38 0
-11 -27 -31 0
-11 27 31 0
11 -27 31 0
11 27 -31 0
-9 -4 -12 0
-9 4 12 0
9 -4 12 0
9 4 -12 0
-33 -38 -39 0
-33 38 39 0
33 -38 39 0
33 38 -39 0
-6 -20 -24 0
-6 20 24 0
6 -20 24 0
6 20 -24 0
-3 -13 -40 0
-3 13 40 0
3 -13 40 0
3 13 -40 0
